\ Model prob_40
\ LP format - for model browsing. Use MPS format to capture full model detail.
Minimize
  24 x_1_2 + 3 x_1_3 + 27 x_1_4 + 31 x_1_5 + 24 x_2_1 + 11 x_2_3 + 7 x_2_4
   + 37 x_2_5 + 30 x_3_1 + x_3_2 + 38 x_3_4 + 22 x_3_5 + 36 x_4_1
   + 18 x_4_2 + 17 x_4_3 + 35 x_4_5 + 41 x_5_1 + 35 x_5_2 + 33 x_5_3
   + 33 x_5_4
Subject To
 R0: - x_1_2 - x_1_3 - x_1_4 - x_1_5 + x_2_1 + x_3_1 + x_4_1 + x_5_1
   >= -136
 R1: x_1_2 - x_2_1 - x_2_3 - x_2_4 - x_2_5 + x_3_2 + x_4_2 + x_5_2 >= 65
 R2: x_1_3 + x_2_3 - x_3_1 - x_3_2 - x_3_4 - x_3_5 + x_4_3 + x_5_3 >= 100
 R3: x_1_4 + x_2_4 + x_3_4 - x_4_1 - x_4_2 - x_4_3 - x_4_5 + x_5_4 >= 353
 R4: x_1_5 + x_2_5 + x_3_5 + x_4_5 - x_5_1 - x_5_2 - x_5_3 - x_5_4 >= -411
Bounds
Generals
 x_1_2 x_1_3 x_1_4 x_1_5 x_2_1 x_2_3 x_2_4 x_2_5 x_3_1 x_3_2 x_3_4 x_3_5 x_4_1
 x_4_2 x_4_3 x_4_5 x_5_1 x_5_2 x_5_3 x_5_4
End
